Minimize
 obj: - 4 y(1) - 5 y(2) - 10 y(3) - 6 y(4) + 5 y(8) - 2 y(10) + 4 y(13)
      + 6 y(14) + 10 y(18) - 4 y(20) + 7 y(22) - 7 y(26) - 4 y(30) + 7 y(31)
      - 3 y(32) + 8 y(34) - 8 y(36) + 101 x(0) - 8 y(0) + 3 y(7) - 7 y(17)
      - 6 y(19) - 9 y(21) + 10 y(25) + 2 y(28) - 9 y(29) + y(37) + 9 y(39)
      - 56 x(1) - 2 y(5) + 10 y(9) - 8 y(11) - 7 y(12) - 6 y(23) - 3 y(38)
      + 180 x(2) - 5 y(16) + 4 y(33) + 178 x(3) + 2 y(6) + 2 y(24) - 7 y(27)
      + 2 y(35) + 88 x(4) + 39 x(5) - 93 x(6) + 132 x(7) - 162 x(8) - 66 x(9)
      - 146 x(10) - x(11) - 114 x(12) + 105 x(13) + 155 x(14) + 167 x(15)
      + 30 x(16) + 57 x(17) - 97 x(18) + 132 x(19) + 140 x(20) - 108 x(21)
      - 177 x(22) + 142 x(23) - 132 x(24) + 30 x(25) - 145 x(26) - 145 x(27)
      + 26 x(28) + 109 x(29) + 17 x(30) - 74 x(31) + 181 x(32) - 3 x(33)
      - 96 x(34) + 69 x(35) + 164 x(36) + 12 x(37) + x(38) + 130 x(39) 
Subject To
 c1:  17 y(1) + 4 y(2) + 18 y(3) + 16 y(4) + 13 y(8) + 10 y(10) + 6 y(13)
      + 9 y(14) + 11 y(15) + 12 y(18) + 18 y(20) + 6 y(22) + 10 y(26)
      + 14 y(30) - y(31) + 5 y(32) + 7 y(34) + 2 y(36) + 7 x(0) <= 61
 c2:  - y(2) + 3 y(4) - y(13) + 17 y(18) + 5 y(34) + 10 y(36) + 15 y(0)
      + 5 y(7) + 14 y(17) + 9 y(19) + 3 y(21) + 15 y(25) + 18 y(28) + 8 y(29)
      + 14 y(37) + 19 y(39) + 6 x(1) <= 59
 c3:  16 y(2) + 15 y(3) + 9 y(4) + 6 y(8) + 5 y(13) + 5 y(15) + 11 y(0)
      + 11 y(19) + 16 y(21) - y(5) + 6 y(9) + 5 y(11) + 16 y(12) + 2 y(23)
      + 18 y(38) + 14 x(2) <= 52
 c4:  19 y(1) + 5 y(3) + 4 y(4) + 5 y(8) + y(13) + 2 y(32) + y(36) + 17 y(0)
      + 4 y(7) + 14 y(17) + 16 y(19) + 13 y(21) + 11 y(28) + 20 y(29) + 11 y(5)
      + 4 y(11) + 2 y(12) + 6 y(38) + y(16) + y(33) - x(3) <= 61
 c5:  10 y(1) + 18 y(2) + 11 y(3) + 7 y(4) + 18 y(13) - y(18) + 6 y(20)
      + 15 y(22) + 16 y(26) + 15 y(7) + 11 y(11) + 10 y(16) + 7 y(6) + 3 y(24)
      + 10 y(27) + 17 y(35) + 10 x(4) <= 79
 c6:  14 y(2) + 15 y(3) + 6 y(4) + 14 y(8) + 12 y(13) + 9 y(14) + 11 y(18)
      + y(20) + 7 y(26) + 8 y(34) + 8 y(36) + 3 y(0) + 2 y(21) + 13 y(29)
      + 12 y(37) + 5 y(39) + 10 y(9) + 2 y(11) + 15 y(12) + 8 y(38) + 19 y(6)
      + 5 y(35) + 9 x(5) <= 100
 c7:  17 y(3) + 6 y(4) + 16 y(8) + 5 y(14) + 17 y(15) + 10 y(20) + 5 y(22)
      + y(30) + 13 y(32) + 20 y(34) + 5 y(7) + 9 y(17) + 13 y(21) + 20 y(25)
      + 14 y(28) + y(37) + 4 y(39) + 9 y(5) + 4 y(9) + 13 y(12) + 6 y(16)
      + 2 y(33) + 18 y(6) + 8 y(27) + 17 x(6) <= 61
 c8:  11 y(2) + 18 y(3) + 12 y(4) + 4 y(8) + y(10) + 20 y(14) + 17 y(15)
      + 10 y(20) + 16 y(26) + 9 y(31) + 14 y(34) + 11 y(21) + 8 y(25)
      + 13 y(29) + 17 y(12) + 9 y(23) + 2 y(38) + 17 y(35) + 3 x(7) <= 93
 c9:  10 y(2) - y(31) + 10 y(17) + 4 y(19) + 12 y(25) + 14 y(28) + 7 y(29)
      + 17 y(5) + 9 y(11) + 12 y(12) + 10 y(27) + 20 x(8) <= 82
 c10: 14 y(2) + 6 y(3) + 4 y(8) + 11 y(10) + 15 y(18) + 16 y(31) + 20 y(32)
      + 14 y(34) + 7 y(19) + 20 y(28) + 9 y(29) + 16 y(9) + 9 y(11) + 13 y(12)
      + 8 y(23) + 7 y(38) + 14 y(33) + 10 y(6) + 10 y(27) + 17 y(35) + 9 x(9)
      <= 82
 c11: - y(2) + y(18) + 11 y(22) + y(26) + 13 y(30) + 4 y(34) + 6 y(19)
      + 8 y(25) - y(29) + 18 y(37) + 6 y(39) + 5 y(5) + 7 y(12) + 19 x(10)
      <= 80
 c12: 15 y(2) + 17 y(4) + 20 y(13) + 18 y(14) + 16 y(15) + 19 y(18) + 19 y(22)
      + 7 y(26) + 2 y(30) + 14 y(31) - y(7) + 12 y(17) + 5 y(19) + y(29)
      + 14 y(37) + 15 y(39) + 10 y(16) - y(35) + 3 x(11) <= 68
 c13: 12 y(1) + 19 y(2) + 19 y(4) + 15 y(13) + 20 y(14) + 14 y(22) + 11 y(31)
      + 6 y(32) + 3 y(7) - y(17) + 8 y(19) + 16 y(21) + 15 y(25) + 12 y(29)
      + 6 y(37) + 20 y(39) + 17 y(11) + 19 y(12) + y(23) + 12 y(33) + 6 y(6)
      + 8 y(27) + 11 x(12) <= 89
 c14: 8 y(2) + 9 y(3) + 17 y(10) + 8 y(13) + 9 y(15) + 18 y(18) + 16 y(20)
      + 10 y(26) - y(36) + 3 y(0) + 8 y(21) + 4 y(11) + 7 y(38) + 4 x(13) <= 75
 c15: 10 y(4) + 2 y(10) + 9 y(13) + 20 y(18) - y(20) + 16 y(22) + 2 y(19)
      + 5 y(21) + 2 y(37) + 14 y(5) + 20 y(9) + 13 y(12) + 13 y(38) + 15 y(16)
      + 5 y(33) + 3 y(35) + 20 x(14) <= 96
 c16: 3 y(1) + 9 y(3) - y(4) + 16 y(8) + 20 y(10) + 20 y(18) + 16 y(20)
      + 19 y(30) + 5 y(32) + 16 y(34) + 4 y(7) + 9 y(17) + 13 y(37) + 6 y(39)
      + 11 y(9) + 19 y(11) + 14 y(38) + 6 y(33) + 20 y(24) + y(27) + 16 y(35)
      + x(15) <= 92
 c17: 15 y(8) + 5 y(13) + 16 y(15) + 11 y(26) + 15 y(32) + 5 y(34) + 9 y(36)
      + 19 y(7) + 2 y(17) + 6 y(25) + 2 y(28) + 5 y(29) + 8 y(37) + 14 y(9)
      + 20 y(11) + 17 y(16) + y(33) + 17 y(6) + 2 y(27) + 8 y(35) + 8 x(16)
      <= 64
 c18: 17 y(1) + 4 y(2) + 8 y(4) + 5 y(14) + 9 y(15) + 3 y(18) + 17 y(22)
      + 8 y(26) + 13 y(32) + 10 y(34) + 4 y(36) + y(0) + 11 y(17) + 20 y(19)
      + 15 y(25) + 11 y(28) + 2 y(37) + 9 y(9) + 14 y(23) + 16 y(6) + 13 y(24)
      + 10 y(27) + 11 y(35) + 20 x(17) <= 98
 c19: 17 y(2) + 11 y(4) + 12 y(10) + 15 y(13) + 9 y(14) + 18 y(15) + 15 y(20)
      + 12 y(36) + 11 y(7) + y(25) + 6 y(29) + 5 y(39) + 13 y(9) + 15 y(23)
      + 18 y(33) + 19 y(27) + 14 x(18) <= 84
 c20: 2 y(3) + 9 y(4) + 12 y(10) + 4 y(13) + 14 y(14) + 13 y(18) + 3 y(32)
      + 19 y(34) + 8 y(36) + 13 y(17) + 10 y(21) + 12 y(25) + 10 y(5)
      + 12 y(38) + 11 y(33) + 6 y(24) + 4 y(35) + 7 x(19) <= 60
 c21: y(1) + 13 y(2) + 19 y(4) + 13 y(8) + 10 y(10) + 3 y(14) + 10 y(15)
      + 3 y(22) + 14 y(26) + 11 y(31) + y(32) + 18 y(34) + 11 y(36) + 2 y(17)
      + 7 y(21) + 18 y(25) + 9 y(29) + 9 y(37) - y(5) + 16 y(11) + 15 y(23)
      + 3 y(6) + 10 y(27) + 2 x(20) <= 55
 c22: 19 y(1) + 12 y(3) - y(4) + 16 y(10) + 13 y(13) + 5 y(15) + 8 y(20)
      + 16 y(22) + 12 y(30) + 2 y(32) + 3 y(34) + 18 y(36) + 8 y(7) + 18 y(19)
      + 13 y(21) + 18 y(25) + 19 y(28) + 18 y(39) + 11 y(5) + 4 y(9) - y(11)
      + 19 y(16) + 12 y(6) + 7 y(24) + 19 x(21) <= 61
 c23: 10 y(1) + 8 y(8) + 20 y(10) + 15 y(13) + 9 y(18) + 4 y(30) + 10 y(31)
      + 19 y(36) + 17 y(17) + 6 y(25) + 9 y(11) + 14 y(33) + 12 y(6) + 17 y(24)
      + 14 y(35) + 11 x(22) <= 71
 c24: 5 y(2) + 20 y(3) - y(8) + 18 y(10) + 10 y(20) + 16 y(22) + 19 y(30)
      + 5 y(31) + 9 y(32) + 8 y(36) + 20 y(7) + 9 y(9) + 3 y(11) + 11 y(12)
      + 19 y(38) + 5 y(24) + 16 y(35) + 4 x(23) <= 57
 c25: y(1) + 13 y(3) + 20 y(10) + 3 y(13) + 7 y(18) + 3 y(20) + 3 y(26)
      + 20 y(34) + 4 y(36) + 2 y(0) + 12 y(17) + 19 y(25) + 7 y(39) + 14 y(5)
      + 7 y(9) + 20 y(23) + 19 y(38) + 16 y(16) + 2 y(33) + 6 y(24) - y(35)
      + 18 x(24) <= 98
 c26: 10 y(2) + 3 y(14) + 13 y(18) + 15 y(22) + 11 y(26) - y(30) + 16 y(31)
      + 14 y(32) + y(34) + 11 y(0) + 20 y(19) + 3 y(25) + 6 y(37) + 19 y(9)
      + 8 y(6) + 4 y(24) + 11 y(27) + 17 y(35) + 10 x(25) <= 74
 c27: 9 y(1) + 3 y(2) + 15 y(4) + 5 y(8) + y(22) + 10 y(30) + 7 y(31) + 4 y(32)
      + 5 y(36) + 2 y(17) + 20 y(19) + 10 y(21) + 11 y(25) + 17 y(39) + 17 y(5)
      + 12 y(9) + 8 y(11) + 13 y(38) + 4 y(16) + 14 y(24) + 17 x(26) <= 73
 c28: - y(1) + 17 y(2) + 15 y(10) + 6 y(13) + 8 y(14) + 3 y(15) + 4 y(20)
      + 19 y(26) + 16 y(30) + 7 y(32) - y(34) + 9 y(7) + 10 y(17) + 17 y(25)
      + 5 y(28) + 7 y(37) + 6 y(9) + 7 y(11) + 10 y(12) + 8 y(33) + 14 y(24)
      - y(27) + 12 y(35) + 17 x(27) <= 93
 c29: 18 y(10) + 5 y(13) + 18 y(14) + 4 y(22) - y(30) + 17 y(32) + 7 y(34)
      + 2 y(36) + 4 y(0) + 14 y(7) + 19 y(17) + 14 y(21) + 9 y(25) + 19 y(29)
      + 6 y(37) + 10 y(12) + 15 y(23) + 14 y(27) + 10 y(35) + 10 x(28) <= 59
 c30: 8 y(1) + 16 y(2) + 12 y(3) + 6 y(4) + 13 y(10) + 8 y(13) + y(14)
      + 19 y(15) + 4 y(18) + 19 y(26) + 14 y(30) + 18 y(34) - y(36) + 20 y(17)
      + 12 y(19) + y(37) + 4 y(39) + 13 y(33) + 4 y(6) + 8 y(27) + 3 x(29)
      <= 90
 c31: 6 y(1) + 12 y(2) + 16 y(10) + 15 y(15) + 15 y(22) + 16 y(32) + 7 y(34)
      + 2 y(36) + 8 y(0) + 16 y(7) + 20 y(17) + 5 y(21) + 7 y(25) + 8 y(28)
      - y(29) + 7 y(39) + 13 y(5) + 14 y(6) + 3 x(30) <= 99
 c32: 9 y(1) + 17 y(2) + 16 y(4) + 20 y(10) + 11 y(13) + 11 y(14) + 8 y(20)
      + 11 y(26) + 8 y(31) + 8 y(34) + 4 y(36) + 20 y(0) + 12 y(17) + 2 y(19)
      + 18 y(25) + 19 y(37) + 17 y(5) + 16 y(23) + 11 y(38) + 2 y(33) + 4 y(24)
      + 2 x(31) <= 95
 c33: 15 y(2) + 9 y(3) + 14 y(8) + 20 y(13) + 4 y(18) + 2 y(20) + 17 y(30)
      + 17 y(31) + 2 y(32) + 10 y(0) + 3 y(19) + 6 y(25) + 19 y(28) - y(29)
      + 3 y(9) + 7 y(11) + 17 y(23) + 11 y(33) + 19 y(6) + 10 y(24) - y(35)
      + 9 x(32) <= 73
 c34: 6 y(8) + 11 y(10) + 2 y(13) + 12 y(18) + 11 y(20) + 16 y(0) + 5 y(17)
      + 18 y(19) + 17 y(25) + y(28) + 9 y(29) + 13 y(37) + 7 y(39) + 16 y(5)
      + 2 y(11) + 11 y(12) + y(38) + 17 y(16) + 15 y(24) + 14 x(33) <= 50
 c35: 18 y(4) + 2 y(10) + 3 y(15) + 8 y(18) + 18 y(20) + 11 y(22) + 9 y(31)
      + 5 y(32) + 19 y(7) - y(17) + 8 y(19) + 13 y(21) + y(29) + 16 y(37)
      + 18 y(39) + 11 y(9) + 8 y(38) + 15 y(16) + 17 y(33) + 13 y(6) + 18 y(24)
      + 7 y(35) + 20 x(34) <= 56
 c36: 7 y(1) + 18 y(3) + 19 y(4) + 19 y(10) + 2 y(14) - y(18) - y(20)
      + 16 y(31) + 17 y(32) + 6 y(0) + 11 y(17) + 5 y(21) + 4 y(25) + 13 y(29)
      - y(37) - y(23) + 7 y(6) + 8 y(24) + 5 y(35) + 14 x(35) <= 76
 c37: 2 y(3) + 19 y(10) + 13 y(13) + 18 y(14) + 16 y(18) + 5 y(20) + 17 y(26)
      + 14 y(34) + 7 y(37) + 13 y(5) + 19 y(11) + 6 y(12) + 10 y(23) + 13 y(16)
      + 13 y(6) + 11 x(36) <= 100
 c38: - y(2) + 12 y(13) + 9 y(18) + 7 y(26) + 15 y(32) + 16 y(34) + 10 y(0)
      - y(25) + 17 y(28) + y(11) + 10 y(12) + 8 y(38) + 8 y(6) + 3 y(24)
      + 6 x(37) <= 92
 c39: 12 y(1) + 13 y(3) + 10 y(14) + 14 y(15) + 11 y(18) + 16 y(22) + 2 y(26)
      + 5 y(30) + 14 y(32) + y(34) + 18 y(19) + 4 y(21) + 3 y(28) + 16 y(37)
      + 13 y(5) + 7 y(12) + 16 y(38) + 6 y(27) + 10 x(38) <= 69
 c40: 16 y(3) + 6 y(4) + 9 y(8) + 11 y(26) + 16 y(32) + 3 y(34) + 3 y(36)
      + 5 y(7) + 12 y(19) + 18 y(21) + 7 y(29) + 7 y(39) + 14 y(9) + 15 y(11)
      + 2 y(12) - y(23) + 19 y(38) + 16 y(33) + 3 y(24) + 6 y(35) + 13 x(39)
      <= 55
 c41: 12 y(1) + 14 y(4) + 6 y(10) + 15 y(15) + 15 y(18) + 4 y(20) + 2 y(22)
      + 10 y(30) + 10 y(32) + 5 y(34) - y(36) + 16 y(0) + 11 y(21) + 15 y(28)
      + 9 y(29) + 19 y(37) + 19 y(39) + 17 y(5) + 9 y(9) + 18 y(12) + 5 y(23)
      - y(16) + 11 y(33) + 2 y(6) + y(24) + 7 y(35) <= 73
 c42: y(10) + 8 y(14) + 19 y(15) + 19 y(20) + 8 y(0) + 20 y(17) + 9 y(19)
      + 19 y(28) + 13 y(29) + 6 y(39) + 18 y(11) + 5 y(12) + 14 y(16)
      + 15 y(33) <= 73
 c43: 18 y(1) + 16 y(2) + 10 y(4) + 8 y(8) + 16 y(10) + 20 y(13) + 2 y(15)
      + 4 y(18) + 5 y(20) - y(0) + 19 y(17) + 19 y(21) + 10 y(9) + 20 y(12)
      - y(24) + 18 y(27) <= 73
 c44: y(2) + 3 y(4) + 20 y(10) + y(13) + 3 y(14) + 9 y(30) + 9 y(32) + 9 y(36)
      + 7 y(7) + 15 y(17) + 12 y(21) + 7 y(29) + 2 y(37) + 7 y(9) + 15 y(11)
      + 14 y(23) + 17 y(33) + 7 y(6) + 19 y(24) + 19 y(35) <= 87
 c45: 8 y(1) + 14 y(4) + 3 y(8) + 12 y(10) + 18 y(14) + 13 y(15) + 7 y(31)
      + 4 y(34) + 15 y(0) + 3 y(17) - y(21) + 19 y(39) + 20 y(9) + 4 y(11)
      + 8 y(24) + 20 y(27) + 9 y(35) <= 72
 c46: 2 y(1) + 16 y(13) + 16 y(14) + 14 y(15) + 11 y(18) + 7 y(20) + y(26)
      - y(30) + 16 y(32) + y(34) + 15 y(36) + 5 y(25) + 2 y(28) + 11 y(37)
      + 4 y(5) + 3 y(9) + 12 y(11) + 11 y(23) + 2 y(38) + 14 y(33) + 18 y(6)
      + 6 y(24) + 17 y(35) <= 69
 c47: - y(1) + 6 y(15) + 5 y(18) + 2 y(22) + 2 y(26) + 9 y(30) + 3 y(36)
      + 7 y(0) + 12 y(7) + 16 y(21) + 13 y(28) + 20 y(39) + 3 y(11) + 11 y(38)
      + 14 y(16) + 7 y(33) + 11 y(6) <= 78
 c48: 20 y(1) - y(2) + 10 y(8) + 16 y(26) + 14 y(30) + 19 y(31) + 5 y(32)
      + 4 y(36) + y(0) + 9 y(7) + 4 y(17) + 15 y(21) + 6 y(29) + 3 y(39)
      + 13 y(5) + 15 y(11) + 12 y(12) + 12 y(33) + 14 y(6) + 15 y(27) <= 87
 c49: 17 y(1) + 12 y(2) + 6 y(3) + 10 y(10) + 6 y(13) + 2 y(15) + 4 y(18)
      + 19 y(20) + 15 y(22) + 3 y(30) + 14 y(31) + 19 y(36) + 6 y(17) + 5 y(25)
      + 14 y(28) + 16 y(29) + 4 y(39) + 2 y(11) + 12 y(12) + 3 y(23) + 2 y(38)
      + 18 y(33) + 11 y(6) + 4 y(27) <= 91
 c50: 2 y(1) + 14 y(2) + 4 y(3) + 3 y(4) + 17 y(13) + 3 y(18) + 2 y(31)
      + 2 y(32) + 7 y(34) + 15 y(36) + 17 y(0) + 15 y(7) + 15 y(17) + 7 y(21)
      + 14 y(25) + 7 y(37) + 8 y(12) + 14 y(23) + 9 y(38) + 6 y(33) <= 86
 c51: 10 y(1) + y(3) - y(4) + 7 y(10) + 3 y(13) + 6 y(14) + 8 y(18) + 11 y(20)
      + 14 y(22) + 11 y(0) + 14 y(17) + y(19) + 19 y(21) + 16 y(28) + y(12)
      + 5 y(16) + 11 y(6) - y(27) + y(35) <= 97
 c52: 6 y(1) + 17 y(2) + 13 y(3) + 10 y(18) + 6 y(22) + 4 y(30) + 17 y(7)
      + 9 y(17) + y(21) + 17 y(11) + 10 y(23) + 7 y(16) + 5 y(33) + 7 y(24)
      <= 96
 c53: - y(1) + 12 y(3) + 16 y(8) + 20 y(10) + 8 y(14) + 12 y(15) + 20 y(22)
      + 19 y(32) + 8 y(34) + 7 y(0) + 17 y(19) + 18 y(21) + 14 y(9) + 7 y(12)
      + 8 y(38) - y(6) + 7 y(27) + 17 y(35) <= 97
 c54: 10 y(1) + 6 y(2) + 3 y(4) + 8 y(8) + 2 y(10) + 19 y(13) + 8 y(14)
      + 16 y(18) + 8 y(22) + 10 y(31) + 16 y(32) + 6 y(36) + 15 y(17)
      + 18 y(21) + 5 y(25) + 5 y(29) + 15 y(37) + 5 y(5) + 12 y(9) + 17 y(23)
      + y(6) <= 92
 c55: 11 y(3) + 5 y(8) + 4 y(10) + 4 y(14) + 9 y(20) + 18 y(26) + 9 y(30)
      + 18 y(34) + 9 y(19) + 16 y(21) + 19 y(29) + 6 y(9) + 3 y(12) + 11 y(23)
      + 9 y(16) + 18 y(33) + 13 y(27) + y(35) <= 77
 c56: 12 y(1) + 9 y(8) + 14 y(13) + 20 y(14) + 14 y(15) + 13 y(18) + 2 y(0)
      + 12 y(7) + 6 y(17) + 11 y(21) + 9 y(28) + 9 y(5) + 3 y(9) + 7 y(11)
      + 19 y(23) + 10 y(38) + 6 y(16) - y(6) + 9 y(24) <= 94
 c57: 9 y(2) + 11 y(3) + 20 y(4) + 14 y(8) + y(13) + y(22) + 4 y(26) + 14 y(0)
      + 7 y(19) + 18 y(25) + 16 y(9) + 3 y(11) + 11 y(12) + 14 y(23) + 7 y(6)
      <= 66
 c58: 11 y(1) + 10 y(2) + 10 y(3) + 15 y(4) + 19 y(8) + 4 y(10) + 10 y(15)
      + 7 y(18) + 18 y(30) - y(31) + 6 y(34) + y(17) + 18 y(19) + 20 y(25)
      + 15 y(28) + 13 y(29) + 13 y(39) + 8 y(12) + 5 y(6) + 9 y(27) + 12 y(35)
      <= 100
 c59: 9 y(4) + 6 y(13) + 12 y(18) + 15 y(22) + 6 y(26) + 2 y(30) + 14 y(31)
      + 12 y(17) + 17 y(28) + 14 y(37) + 19 y(5) + 17 y(9) + 11 y(11)
      + 11 y(23) + 10 y(6) + 9 y(27) + 7 y(35) <= 60
 c60: 7 y(15) + 20 y(30) + 14 y(31) + 5 y(34) + 14 y(0) + 11 y(19) + 5 y(28)
      + 3 y(37) + 7 y(5) + 11 y(11) + 4 y(16) + 7 y(6) + 5 y(24) + 15 y(35)
      <= 100
 c61: 5 y(1) + 7 y(3) + 5 y(15) + 2 y(18) + 15 y(30) + 4 y(36) + 20 y(0)
      + 5 y(17) + 6 y(29) + 17 y(39) - y(12) + y(23) + 9 y(38) + 17 y(16)
      + 5 y(6) + 7 y(35) <= 64
 c62: 11 y(4) + 12 y(8) + 7 y(10) + 11 y(13) + 20 y(32) + 13 y(7) + 20 y(21)
      + 17 y(25) + 16 y(29) + 9 y(37) + 12 y(39) + 6 y(9) + 13 y(11) + 7 y(23)
      + 11 y(6) + 3 y(24) + 11 y(27) <= 58
 c63: 2 y(3) + 10 y(10) + 18 y(13) + 20 y(14) + 19 y(15) + 19 y(18) + y(20)
      + 15 y(22) + 5 y(17) + 20 y(19) - y(28) + 2 y(29) + 19 y(39) + 15 y(5)
      + 3 y(12) + 10 y(38) + 18 y(16) - y(33) + 7 y(35) <= 95
 c64: 17 y(4) - y(8) + 4 y(10) + 11 y(13) + 11 y(14) + 19 y(15) + 12 y(20)
      + 16 y(22) + 4 y(26) + 12 y(31) + 6 y(32) - y(0) + 14 y(21) + 10 y(25)
      + 20 y(5) - y(35) <= 87
 c65: 5 y(1) + 10 y(2) + 3 y(4) + 4 y(14) + 4 y(15) + 15 y(18) + 18 y(22)
      + y(32) + 3 y(0) + 13 y(7) - y(21) - y(25) + 4 y(28) + 4 y(29) + 9 y(37)
      + 7 y(39) + 20 y(11) + 11 y(12) + 5 y(33) + 20 y(27) + 6 y(35) <= 58
 c66: 3 y(1) + 10 y(4) + 14 y(13) + 15 y(18) + 3 y(22) + 7 y(32) + y(17)
      + 5 y(21) + 8 y(25) + 4 y(28) + 4 y(29) - y(37) + 8 y(12) + 20 y(38)
      + 20 y(16) + 14 y(33) + 18 y(6) + 14 y(24) + 13 y(35) <= 75
 c67: 13 y(2) + 17 y(3) + y(13) + 14 y(14) - y(20) + 14 y(26) + y(30)
      + 19 y(31) + 3 y(32) + 11 y(34) + 7 y(36) + y(7) + 14 y(19) + 13 y(25)
      + 10 y(39) + 10 y(9) + 8 y(23) + 13 y(16) + 6 y(33) + 9 y(6) <= 63
 c68: 7 y(1) + 10 y(2) + 12 y(3) + 8 y(13) - y(14) + 20 y(26) + 18 y(32)
      + 2 y(7) + 2 y(29) - y(37) + 5 y(39) + 4 y(9) + 15 y(11) + 13 y(12)
      + 7 y(16) + 7 y(24) + 9 y(27) <= 82
 c69: 16 y(8) + 15 y(10) + 4 y(13) + 16 y(20) + 16 y(22) + 14 y(30) + 11 y(31)
      + 16 y(32) + 17 y(36) + 12 y(19) + 19 y(25) + 17 y(28) + 5 y(37)
      + 20 y(9) + y(12) - y(33) + 2 y(35) <= 91
 c70: 13 y(1) + 6 y(2) + 10 y(15) + 8 y(26) + y(30) + 2 y(34) + y(7) + 12 y(16)
      + 8 y(24) <= 56
 c71: 17 y(1) + 18 y(3) + 5 y(13) + 20 y(26) + 5 y(36) + 5 y(0) + 17 y(17)
      + 19 y(25) + y(28) + 4 y(39) + y(11) + 12 y(38) + 6 y(24) + 19 y(27)
      + y(35) <= 61
 c72: 18 y(3) + 20 y(13) - y(14) + 8 y(22) + 6 y(36) + y(0) + 19 y(7) + y(21)
      + y(39) + 7 y(11) + 15 y(38) + 14 y(35) <= 88
 c73: 14 y(1) + 19 y(2) + 7 y(3) + 15 y(4) + 6 y(8) + 10 y(15) + 2 y(20)
      + 18 y(26) + 6 y(30) + 7 y(31) + y(34) + 6 y(7) - y(17) + 17 y(19)
      + 20 y(21) + 8 y(28) + 6 y(37) + 10 y(39) + 9 y(12) + y(33) - y(24)
      + 13 y(27) + 19 y(35) <= 53
 c74: 2 y(1) + 6 y(3) + 7 y(4) + 13 y(14) + 17 y(18) + 3 y(20) + 7 y(22)
      + 17 y(31) + 16 y(34) + 14 y(36) + 9 y(0) + 20 y(28) + 19 y(37)
      + 17 y(39) + 8 y(5) + 16 y(9) + 10 y(38) + y(33) + 8 y(35) <= 85
 c75: 6 y(3) + 3 y(8) + 20 y(10) + 3 y(13) + 12 y(15) + 8 y(20) + 16 y(30)
      + 7 y(7) + 5 y(19) + 2 y(21) - y(25) + 18 y(28) + 15 y(37) + y(39)
      + 17 y(5) + 8 y(9) + 5 y(12) + 11 y(33) + 8 y(35) <= 74
 c76: 18 y(1) + 2 y(2) + 5 y(4) + y(10) + 5 y(14) + 12 y(30) + 14 y(32)
      + 16 y(34) - y(36) + y(25) + y(39) + 11 y(9) + 5 y(11) + 5 y(23)
      + 12 y(38) + 20 y(6) + 20 y(24) + 11 y(27) <= 76
 c77: 12 y(1) + 8 y(4) + 11 y(8) + 8 y(10) + 14 y(15) - y(18) + 7 y(22)
      + 16 y(32) - y(34) + 14 y(36) + 18 y(7) + 12 y(28) + 12 y(39) + 13 y(5)
      + 5 y(11) + 7 y(12) + 6 y(23) + 8 y(38) - y(16) + 16 y(33) + 11 y(6)
      + 4 y(27) + 12 y(35) <= 78
 c78: 15 y(2) + 4 y(4) + 17 y(10) + 16 y(14) + 17 y(18) + y(32) + 4 y(0)
      + 11 y(7) + 8 y(17) + 16 y(19) + 15 y(25) + 17 y(37) - y(5) + 10 y(9)
      + 18 y(24) + 16 y(27) <= 51
 c79: 10 y(2) + 18 y(3) + 18 y(8) + 12 y(10) + 13 y(14) + 19 y(18) + 18 y(20)
      + 16 y(26) + 3 y(30) + 11 y(31) + 8 y(32) + 2 y(0) + 17 y(7) + 12 y(17)
      + 12 y(19) + 9 y(25) + 4 y(28) + 19 y(37) + 5 y(9) + 8 y(16) + 2 y(6)
      + 19 y(24) <= 62
 c80: x(0) + x(1) + x(2) + x(3) + x(4) + x(5) + x(6) + x(7) + x(8) + x(9)
      + x(10) + x(11) + x(12) + x(13) + x(14) + x(15) + x(16) + x(17) + x(18)
      + x(19) + x(20) + x(21) + x(22) + x(23) + x(24) + x(25) + x(26) + x(27)
      + x(28) + x(29) + x(30) + x(31) + x(32) + x(33) + x(34) + x(35) + x(36)
      + x(37) + x(38) + x(39) <= 13
 c81: 5 y(1) - 9 y(2) + 7 y(3) + y(4) - 7 y(8) - 5 y(10) - 9 y(13) + 5 y(14)
      - 8 y(15) - 4 y(18) - 9 y(20) + 2 y(22) - 7 y(26) + 2 y(30) + 8 y(31)
      - 3 y(32) + 7 y(34) + 4 y(36) + 74 x(0) + 3 y(0) + 9 y(7) - 10 y(17)
      + 5 y(19) + 5 y(21) + y(25) - 6 y(28) - 4 y(37) + 10 y(39) - 18 x(1)
      + 8 y(5) - 2 y(9) - y(23) + 10 y(38) - 71 x(2) - 7 y(16) + 6 y(33)
      + 160 x(3) - 3 y(6) - y(24) + 3 y(27) - 10 y(35) - 186 x(4) - 189 x(5)
      + 54 x(6) - 28 x(7) + 68 x(8) + 85 x(9) - 96 x(10) - 65 x(11) + 105 x(12)
      - 145 x(13) - 197 x(14) + 174 x(15) + 86 x(16) + 187 x(17) + 157 x(18)
      - 88 x(19) + 96 x(20) - 26 x(21) - 34 x(22) + 77 x(23) + 99 x(24)
      - 2 x(25) - 127 x(26) + 63 x(27) - 191 x(28) + x(29) - 8 x(30) + 11 x(31)
      + 184 x(32) + 49 x(33) - 102 x(34) + 126 x(35) + 60 x(36) + 153 x(37)
      - 102 x(38) - 72 x(39) = 0
Bounds
 0 <= x(0) <= 1
 0 <= x(1) <= 1
 0 <= x(2) <= 1
 0 <= x(3) <= 1
 0 <= x(4) <= 1
 0 <= x(5) <= 1
 0 <= x(6) <= 1
 0 <= x(7) <= 1
 0 <= x(8) <= 1
 0 <= x(9) <= 1
 0 <= x(10) <= 1
 0 <= x(11) <= 1
 0 <= x(12) <= 1
 0 <= x(13) <= 1
 0 <= x(14) <= 1
 0 <= x(15) <= 1
 0 <= x(16) <= 1
 0 <= x(17) <= 1
 0 <= x(18) <= 1
 0 <= x(19) <= 1
 0 <= x(20) <= 1
 0 <= x(21) <= 1
 0 <= x(22) <= 1
 0 <= x(23) <= 1
 0 <= x(24) <= 1
 0 <= x(25) <= 1
 0 <= x(26) <= 1
 0 <= x(27) <= 1
 0 <= x(28) <= 1
 0 <= x(29) <= 1
 0 <= x(30) <= 1
 0 <= x(31) <= 1
 0 <= x(32) <= 1
 0 <= x(33) <= 1
 0 <= x(34) <= 1
 0 <= x(35) <= 1
 0 <= x(36) <= 1
 0 <= x(37) <= 1
 0 <= x(38) <= 1
 0 <= x(39) <= 1
Binaries
 x(0)  x(1)  x(2)  x(3)  x(4)  x(5)  x(6)  x(7)  x(8)  x(9)  x(10)  x(11) 
 x(12)  x(13)  x(14)  x(15)  x(16)  x(17)  x(18)  x(19)  x(20)  x(21)  x(22) 
 x(23)  x(24)  x(25)  x(26)  x(27)  x(28)  x(29)  x(30)  x(31)  x(32)  x(33) 
 x(34)  x(35)  x(36)  x(37)  x(38)  x(39) 
End
